%BLOCK LATTICE_CART
   18.931530020488704480    -0.000000000000003553     0.000000000000000000
   -9.465765010246645517    16.395185930251127360     0.000000000000000000
    0.000000000000000000     0.000000000000000000     9.999213039981000861
%ENDBLOCK LATTICE_CART

%BLOCK POSITIONS_FRAC
C  0.0756034347004260  0.0756034355668187  0.5000000004346841
C  0.1496332166229109  0.1496332194727908  0.5000000000710555
C  0.2145289813410105  0.2145289823390266  0.4999999994942101
C  0.4243965644332829 -0.0000000008663758  0.5000000004346841
C  0.3503667805273500 -0.0000000028498315  0.5000000000710555
C  0.2854710176611356 -0.0000000009979598  0.4999999994942101
C  0.0000000008664097  0.4243965652996531  0.5000000004346841
C  0.0000000028498759  0.3503667833771617  0.5000000000710555
C  0.0000000009980058  0.2854710186590617  0.4999999994942101
C  0.4243965644332831  0.4243965652997033  0.5000000004346841
C  0.3503667805273500  0.3503667833772184  0.5000000000710555
C  0.2854710176611356  0.2854710186591254  0.4999999994942101
C  0.0000000008664096  0.0756034355668092  0.5000000004346841
C  0.0000000028498759  0.1496332194727669  0.5000000000710555
C  0.0000000009980058  0.2145289823389440  0.4999999994942101
C  0.0756034347004260 -0.0000000008663848  0.5000000004346841
C  0.1496332166229109 -0.0000000028498642  0.5000000000710555
C  0.2145289813410104 -0.0000000009979937  0.4999999994942101
C  0.5756034347004870  0.0756034355668650  0.5000000004346841
C  0.6496332166229718  0.1496332194728213  0.5000000000710555
C  0.7145289813411324  0.2145289823390875  0.4999999994942101
C  0.9243965644334049 -0.0000000008663148  0.5000000004346841
C  0.8503667805277160 -0.0000000028496485  0.5000000000710555
C  0.7854710176613185 -0.0000000009978684  0.4999999994942101
C  0.5000000008665348  0.4243965652997156  0.5000000004346841
C  0.5000000028499829  0.3503667833772151  0.5000000000710555
C  0.5000000009980978  0.2854710186591340  0.4999999994942101
C  0.9243965644334049  0.4243965652997643  0.5000000004346841
C  0.8503667805277160  0.3503667833774013  0.5000000000710555
C  0.7854710176613185  0.2854710186592167  0.4999999994942101
C  0.5000000008665348  0.0756034355668717  0.5000000004346841
C  0.5000000028499828  0.1496332194728203  0.5000000000710555
C  0.5000000009980978  0.2145289823390164  0.4999999994942101
C  0.5756034347004870 -0.0000000008663702  0.5000000004346841
C  0.6496332166229719 -0.0000000028498338  0.5000000000710555
C  0.7145289813411323 -0.0000000009978800  0.4999999994942101
C  0.0756034347004261  0.5756034355668873  0.5000000004346841
C  0.1496332166229109  0.6496332194729492  0.5000000000710555
C  0.2145289813410105  0.7145289823390265  0.4999999994942101
C  0.4243965644332830  0.4999999991336769  0.5000000004346841
C  0.3503667805273500  0.4999999971502211  0.5000000000710555
C  0.2854710176611356  0.4999999990020930  0.4999999994942101
C  0.0000000008664097  0.9243965652998115  0.5000000004346841
C  0.0000000028498760  0.8503667833773728  0.5000000000710555
C  0.0000000009980059  0.7854710186589560  0.4999999994942101
C  0.4243965644332831  0.9243965652998088  0.5000000004346841
C  0.3503667800000002  0.8503667799999545  0.5000000000000498
C  0.2854710176611356  0.7854710186589140  0.4999999994942101
C  0.0000000008664096  0.5756034355668619  0.5000000004346841
C  0.0000000028498759  0.6496332194727666  0.5000000000710555
C  0.0000000009980059  0.7145289823387854  0.4999999994942101
C  0.0756034347004260  0.4999999991336520  0.5000000004346841
C  0.1496332166229109  0.4999999971501884  0.5000000000710555
C  0.2145289813410105  0.4999999990020590  0.4999999994942101
C  0.5756034347004870  0.5756034355669176  0.5000000004346841
C  0.6496332166229719  0.6496332194728739  0.5000000000710555
C  0.7145289813411324  0.7145289823390873  0.4999999994942101
C  0.9243965644334049  0.4999999991337378  0.5000000004346841
C  0.8503667805277161  0.4999999971504041  0.5000000000710555
C  0.7854710176613187  0.4999999990021843  0.4999999994942101
C  0.5000000008665350  0.9243965652995042  0.5000000004346841
C  0.5000000028499829  0.8503667833770565  0.5000000000710555
C  0.5000000009980979  0.7854710186591602  0.4999999994942101
C  0.9243965644334049  0.9243965652998170  0.5000000004346841
C  0.8503667805277160  0.8503667833774541  0.5000000000710555
C  0.7854710176613187  0.7854710186592695  0.4999999994942101
C  0.5000000008665348  0.5756034355669244  0.5000000004346841
C  0.5000000028499829  0.6496332194728730  0.5000000000710555
C  0.5000000009980979  0.7145289823390426  0.4999999994942101
C  0.5756034347004870  0.4999999991336825  0.5000000004346841
C  0.6496332166229719  0.4999999971502188  0.5000000000710555
C  0.7145289813411324  0.4999999990021199  0.4999999994942101
V  0.3934837276229430  0.6065302751523840  0.5001896946183580 SPIN=  2.0000000000
Fe  0.0750788835872182  0.1501577671744286  0.7180482895740022 SPIN=  4.0000000000
Fe  0.1213874019518683  0.2427748039037150  0.6556360752805342 SPIN=  4.0000000000
Fe  0.3498422328257049  0.9249211164129235  0.7180482895741055 SPIN=  4.0000000000
Fe  0.5000000000001480  1.0000000000001532  0.7170749708500012 SPIN=  4.0000000000
Fe  0.2572251960963380  0.8786125980480768  0.6556360752802830 SPIN=  4.0000000000
Fe  0.0750788835872243  0.4249211164128441  0.7180482895740022 SPIN=  4.0000000000
Fe  0.0000000000000223  0.5000000000000638  0.7170749708499899 SPIN=  4.0000000000
Fe  0.1213874019518649  0.3786125980482060  0.6556360752805102 SPIN=  4.0000000000
Fe  0.3498422328256527  0.4249211164128709  0.7180482895740083 SPIN=  4.0000000000
Fe  0.4249211144013281  0.3498422288025475  0.7180482842717864 SPIN=  4.0000000000
Pt  0.5000000000001072  0.5000000000001060  0.7170749708499901 SPIN=  4.0000000000
Fe  0.3786126015121880  0.2572252030242773  0.6556360744754783 SPIN=  4.0000000000
Fe  0.2572251960963908  0.3786125980482353  0.6556360752805046 SPIN=  4.0000000000
Fe  0.0750788835872618  0.9249211164128845  0.7180482895740827 SPIN=  4.0000000000
Fe  0.1213874019518255  0.8786125980480810  0.6556360752803563 SPIN=  4.0000000000
Fe  0.5750788835873013  0.1501577671744687  0.7180482895740236 SPIN=  4.0000000000
Fe  0.6213874019519925  0.2427748039038137  0.6556360752804747 SPIN=  4.0000000000
Fe  0.8498422328258081  0.9249211164129487  0.7180482895740716 SPIN=  4.0000000000
Fe  0.7572251960968717  0.8786125980484755  0.6556360752807804 SPIN=  4.0000000000
Fe  0.5750788835873175  0.4249211164128768  0.7180482895740232 SPIN=  4.0000000000
Fe  0.6213874019519700  0.3786125980482508  0.6556360752805083 SPIN=  4.0000000000
Fe  0.8498422328257728  0.4249211164129310  0.7180482895740066 SPIN=  4.0000000000
Fe  0.7572251960968363  0.3786125980484579  0.6556360752806324 SPIN=  4.0000000000
Fe  0.5750788835873690  0.9249211164129756  0.7180482895741489 SPIN=  4.0000000000
Fe  0.6213874019520531  0.8786125980481911  0.6556360752804296 SPIN=  4.0000000000
Fe  0.1501577711977633  0.5750788855989422  0.7180482842716317 SPIN=  4.0000000000
Fe  0.0750788835871839  0.6501577671744398  0.7180482895740515 SPIN=  4.0000000000
Fe  0.2427747969756592  0.6213873984878685  0.6556360744755487 SPIN=  4.0000000000
Fe  0.1213874019519626  0.7427748039041445  0.6556360752800273 SPIN=  4.0000000000
Cu  0.3202645219743498  0.6797354780250068  0.6000401095656439 SPIN=  1.0000000000
Cu  0.2914208208718752  0.6457104104359790  0.6023350453098610 SPIN=  1.0000000000
Cu  0.4166106251302581  0.5584579064251521  0.7313268025181400 SPIN=  1.0000000000
Cu  0.4313617640217801  0.5686382359784262  0.7286103619829353 SPIN=  1.0000000000
Cu  0.3427338476063119  0.5496298941621961  0.7391956731411097 SPIN=  1.0000000000
Cu  0.2980991390051431  0.5961982780102619  0.6955028759680086 SPIN=  1.0000000000
Fe  0.4249211151567460  0.8498422303137991  0.7180482856609645 SPIN=  4.0000000000
Fe  0.3786125982279190  0.7572251964555998  0.6556360712707081 SPIN=  4.0000000000
Cu  0.3542912307760662  0.7085824615518224  0.6023416755342036 SPIN=  1.0000000000
Fe  0.5750788835873172  0.6501577671745055  0.7180482895740529 SPIN=  4.0000000000
Fe  0.6501577711976818  0.5750788855989014  0.7180482842717627 SPIN=  4.0000000000
Fe  0.7427747969758562  0.6213873984879671  0.6556360744755120 SPIN=  4.0000000000
Fe  0.6213874019520277  0.7427748039039525  0.6556360752803225 SPIN=  4.0000000000
Cu  0.4038109939852311  0.7019054969926628  0.6955151405810942 SPIN=  1.0000000000
Cu  0.4415442795754476  0.5833904678701105  0.7313282876297271 SPIN=  1.0000000000
Cu  0.4503795426644253  0.6572708708073116  0.7392009365970754 SPIN=  1.0000000000
%ENDBLOCK POSITIONS_FRAC

